RTMQueue/RunRules/Simulation/maxfiles/Queue_VECTIS_DFE_SIM/scratch/QueueKernel_scheduler_2_C.dat
data;
set nodes
NodeInput_ID5_0
NodeCast_ID6_1
NodeReinterpret_ID10_2
NodeAnd_ID9_3
NodeReinterpret_ID12_4
NodeInput_ID13_5
NodeInput_ID16_6
NodeTriAdd_ID38_7
NodeCounterV1_ID2_8
NodePrintf_ID21_9
NodeCast_ID22_10
NodeReinterpret_ID26_11
NodeAnd_ID25_12
NodeReinterpret_ID28_13
NodeOutput_ID29_14
NodeCounterV1_ID32_15
NodeOutputMappedReg_ID34_16
NodeEq_ID37_17
NodeFlush_ID35_18
;
set inputsLeadingToFlush
;
set nodesAfterFlush
NodeInput_ID5_0
NodeInput_ID13_5
NodeInput_ID16_6
NodePrintf_ID21_9
NodeOutput_ID29_14
NodeOutputMappedReg_ID34_16
;
set iDescs
InputDesc_19
InputDesc_20
InputDesc_21
InputDesc_22
InputDesc_23
InputDesc_24
InputDesc_25
InputDesc_26
InputDesc_27
InputDesc_28
InputDesc_29
InputDesc_30
InputDesc_31
InputDesc_32
InputDesc_33
InputDesc_34
InputDesc_35
InputDesc_36
InputDesc_37
InputDesc_38
InputDesc_39
;
set oDescs
OutputDesc_40
OutputDesc_41
OutputDesc_42
OutputDesc_43
OutputDesc_44
OutputDesc_45
OutputDesc_46
OutputDesc_47
OutputDesc_48
OutputDesc_49
OutputDesc_50
OutputDesc_51
OutputDesc_52
OutputDesc_53
OutputDesc_54
OutputDesc_55
OutputDesc_56
;
set constrainedPairs
;
param flushNode := NodeFlush_ID35_18;
param flushNodeStartLatency := 3;
param inputFlushDistanceFactor := 0;
param : getChild getParent getODesc getLatency :=
InputDesc_19 NodeCast_ID6_1 NodeInput_ID5_0 OutputDesc_40 5
InputDesc_20 NodeReinterpret_ID10_2 NodeCast_ID6_1 OutputDesc_41 0
InputDesc_21 NodeAnd_ID9_3 NodeReinterpret_ID10_2 OutputDesc_42 0
InputDesc_22 NodeReinterpret_ID12_4 NodeAnd_ID9_3 OutputDesc_43 0
InputDesc_23 NodeInput_ID13_5 NodeReinterpret_ID12_4 OutputDesc_44 0
InputDesc_24 NodeTriAdd_ID38_7 NodeInput_ID13_5 OutputDesc_45 5
InputDesc_25 NodeTriAdd_ID38_7 NodeInput_ID16_6 OutputDesc_46 5
InputDesc_26 NodePrintf_ID21_9 NodeInput_ID13_5 OutputDesc_45 5
InputDesc_27 NodePrintf_ID21_9 NodeInput_ID16_6 OutputDesc_46 5
InputDesc_28 NodePrintf_ID21_9 NodeInput_ID5_0 OutputDesc_40 5
InputDesc_29 NodePrintf_ID21_9 NodeTriAdd_ID38_7 OutputDesc_47 1
InputDesc_30 NodePrintf_ID21_9 NodeCounterV1_ID2_8 OutputDesc_48 0
InputDesc_31 NodeCast_ID22_10 NodeInput_ID5_0 OutputDesc_40 5
InputDesc_32 NodeReinterpret_ID26_11 NodeCast_ID22_10 OutputDesc_50 0
InputDesc_33 NodeAnd_ID25_12 NodeReinterpret_ID26_11 OutputDesc_51 0
InputDesc_34 NodeReinterpret_ID28_13 NodeAnd_ID25_12 OutputDesc_52 0
InputDesc_35 NodeOutput_ID29_14 NodeReinterpret_ID28_13 OutputDesc_53 0
InputDesc_36 NodeOutput_ID29_14 NodeTriAdd_ID38_7 OutputDesc_47 1
InputDesc_37 NodeOutputMappedReg_ID34_16 NodeCounterV1_ID32_15 OutputDesc_54 0
InputDesc_38 NodeEq_ID37_17 NodeCounterV1_ID32_15 OutputDesc_54 0
InputDesc_39 NodeFlush_ID35_18 NodeEq_ID37_17 OutputDesc_56 1
;
param : getWidth :=
OutputDesc_40 32
OutputDesc_41 1
OutputDesc_42 1
OutputDesc_43 1
OutputDesc_44 1
OutputDesc_45 32
OutputDesc_46 32
OutputDesc_47 32
OutputDesc_48 32
OutputDesc_49 1
OutputDesc_50 1
OutputDesc_51 1
OutputDesc_52 1
OutputDesc_53 1
OutputDesc_54 48
OutputDesc_55 1
OutputDesc_56 1
;
param : getPairConstraint :=
;
set autoVars :=
;
param getAutoVarCoeff :

:=
;
param getAutoVarUserMinCoeffAutoVar :

:=
;
param getAutoVarUserMaxCoeffAutoVar :

:=
;
param getAutoVarUserMinCoeffMeasurement :

:=
;
param getAutoVarUserMaxCoeffMeasurement :

:=
;
param getAutoVarUserMin :=
;
param getAutoVarUserMax :=
;
set measurements := 
;
param getMeasurementStart := 
;
param getMeasurementEnd := 
;
param getMeasurementCoeff :

:=
;
end;
