RTMQueue/RunRules/Simulation/maxfiles/Queue_VECTIS_DFE_SIM/scratch/QueueKernel_scheduler_2_C.log
Reading model section from scheduler.mod...
90 lines were read
Reading data section from QueueKernel_scheduler_2_C.dat...
153 lines were read
Generating schedulingEquation...
Generating bufferingEquation...
Generating afterFlushNode...
Generating forcePairConstraints...
Generating autoVarLatencyUserMin...
Generating autoVarLatencyUserMax...
Generating fifos...
Model has been successfully generated
ipp_basic_tech:  1 row(s) and 1 column(s) removed
ipp_reduce_bnds: 1 pass(es) made, 0 bound(s) reduced
ipp_basic_tech:  0 row(s) and 0 column(s) removed
ipp_reduce_coef: 1 pass(es) made, 0 coefficient(s) reduced
lpx_intopt: presolved MIP has 46 rows, 32 columns, 112 non-zeros
lpx_intopt: 32 integer columns, none of which are binary
lpx_adv_basis: size of triangular part = 46
Solving LP relaxation...
      0:   objval =  -1.000000000e+00   infeas =   1.000000000e+00 (0)
     26:   objval =   6.880000000e+02   infeas =   0.000000000e+00 (0)
*    26:   objval =   6.880000000e+02   infeas =   0.000000000e+00 (0)
*    31:   objval =   4.480000000e+02   infeas =   0.000000000e+00 (0)
OPTIMAL SOLUTION FOUND
Integer optimization begins...
+    31: mip =     not found yet >=              -inf        (1; 0)
+    31: >>>>>   4.480000000e+02 >=   4.480000000e+02   0.0% (1; 0)
+    31: mip =   4.480000000e+02 >=     tree is empty   0.0% (0; 1)
INTEGER OPTIMAL SOLUTION FOUND
Time used:   0.0 secs
Memory used: 0.2 Mb (245954 bytes)
Model has been successfully processed
